language Essence 1.3

letting blksize_delta be
        function(1 --> 8, 2 --> 8, 3 --> 9, 4 --> 9, 5 --> 8, 6 --> 8, 7 --> 9, 8 --> 8, 9 --> 8, 10 --> 8, 11 --> 8,
                 12 --> 8, 13 --> 8, 14 --> 8, 15 --> 8, 16 --> 8, 17 --> 8, 18 --> 8, 19 --> 10, 20 --> 8, 21 --> 8,
                 22 --> 8)
letting maxcars be
        function(1 --> 9, 2 --> 9, 3 --> 9, 4 --> 9, 5 --> 9, 6 --> 9, 7 --> 9, 8 --> 10, 9 --> 9, 10 --> 9, 11 --> 9,
                 12 --> 9, 13 --> 9, 14 --> 9, 15 --> 9, 16 --> 9, 17 --> 9, 18 --> 9, 19 --> 9, 20 --> 9, 21 --> 9,
                 22 --> 9)
letting n_cars be 225
letting n_classes be 28
letting n_options be 22
letting quantity be
        function(1 --> 8, 2 --> 8, 3 --> 8, 4 --> 8, 5 --> 8, 6 --> 8, 7 --> 8, 8 --> 8, 9 --> 8, 10 --> 8, 11 --> 8,
                 12 --> 8, 13 --> 8, 14 --> 9, 15 --> 8, 16 --> 8, 17 --> 8, 18 --> 8, 19 --> 8, 20 --> 8, 21 --> 8,
                 22 --> 8, 23 --> 8, 24 --> 8, 25 --> 8, 26 --> 8, 27 --> 8, 28 --> 8)
letting usage be
        relation((1, 5), (1, 16), (1, 21), (1, 22), (2, 3), (2, 7), (2, 11), (3, 18), (4, 9), (4, 19), (5, 21), (6, 1),
                 (6, 12), (6, 16), (6, 22), (7, 1), (7, 2), (7, 8), (7, 15), (8, 15), (9, 3), (9, 11), (9, 22),
                 (10, 18), (10, 19), (10, 21), (11, 3), (11, 20), (11, 22), (12, 14), (13, 7), (14, 21), (15, 1),
                 (16, 8), (16, 16), (16, 17), (17, 5), (17, 10), (17, 17), (18, 10), (18, 13), (18, 14), (18, 15),
                 (18, 21), (19, 1), (19, 10), (20, 3), (20, 14), (21, 11), (21, 20), (22, 5), (22, 6), (22, 10),
                 (22, 20), (23, 4), (23, 8), (23, 11), (24, 5), (24, 8), (24, 10), (24, 12), (24, 20), (25, 21),
                 (26, 21), (27, 8), (28, 15))
$ Visualisation for usage
$  1  5
$  1 16
$  1 21
$  1 22
$  2  3
$  2  7
$  2 11
$  3 18
$  4  9
$  4 19
$  5 21
$  6  1
$  6 12
$  6 16
$  6 22
$  7  1
$  7  2
$  7  8
$  7 15
$  8 15
$  9  3
$  9 11
$  9 22
$ 10 18
$ 10 19
$ 10 21
$ 11  3
$ 11 20
$ 11 22
$ 12 14
$ 13  7
$ 14 21
$ 15  1
$ 16  8
$ 16 16
$ 16 17
$ 17  5
$ 17 10
$ 17 17
$ 18 10
$ 18 13
$ 18 14
$ 18 15
$ 18 21
$ 19  1
$ 19 10
$ 20  3
$ 20 14
$ 21 11
$ 21 20
$ 22  5
$ 22  6
$ 22 10
$ 22 20
$ 23  4
$ 23  8
$ 23 11
$ 24  5
$ 24  8
$ 24 10
$ 24 12
$ 24 20
$ 25 21
$ 26 21
$ 27  8
$ 28 15

